p cnf 144 1
144 0
w 1 0.732716
w 2 1 0
w 2 -1 1
w 3 2 0.81825
w 3 -2 0.271849
w 4 3 0
w 4 -3 1
w 5 4 0.0688208
w 5 -4 0.193447
w 6 5 1
w 6 -5 0
w 7 6 0.135816
w 7 -6 0.709038
w 8 7 0.587622
w 8 -7 0.82154
w 9 8 0.466966
w 9 -8 0.273139
w 10 9 0
w 10 -9 1
w 11 10 1
w 11 -10 0
w 12 11 0
w 12 -11 1
w 13 1 0
w 13 -1 1
w 14 13 2 0.943429
w 14 13 -2 0.587118
w 14 -13 2 0.175954
w 14 -13 -2 0.47309
w 15 14 3 1
w 15 14 -3 0
w 15 -14 3 1
w 15 -14 -3 1
w 16 15 4 0
w 16 15 -4 0
w 16 -15 4 0
w 16 -15 -4 1
w 17 16 5 0
w 17 16 -5 0
w 17 -16 5 1
w 17 -16 -5 1
w 18 17 6 0.483573
w 18 17 -6 0.0752314
w 18 -17 6 0.471286
w 18 -17 -6 0.72497
w 19 18 7 0.952723
w 19 18 -7 0.639576
w 19 -18 7 0.942363
w 19 -18 -7 0.191611
w 20 19 8 1
w 20 19 -8 0
w 20 -19 8 0
w 20 -19 -8 0
w 21 20 9 1
w 21 20 -9 1
w 21 -20 9 1
w 21 -20 -9 0
w 22 21 10 0
w 22 21 -10 0
w 22 -21 10 1
w 22 -21 -10 0
w 23 22 11 0.344473
w 23 22 -11 0.987086
w 23 -22 11 0.888665
w 23 -22 -11 0.554906
w 24 23 12 0.487987
w 24 23 -12 0.038479
w 24 -23 12 0.71129
w 24 -23 -12 0.959273
w 25 13 0.44294
w 25 -13 0.911995
w 26 25 14 1
w 26 25 -14 1
w 26 -25 14 0
w 26 -25 -14 1
w 27 26 15 0.901118
w 27 26 -15 0.629977
w 27 -26 15 0.0664315
w 27 -26 -15 0.685945
w 28 27 16 0.221328
w 28 27 -16 0.488605
w 28 -27 16 0.188591
w 28 -27 -16 0.54047
w 29 28 17 0.144169
w 29 28 -17 0.814349
w 29 -28 17 0.456493
w 29 -28 -17 0.488642
w 30 29 18 0.345158
w 30 29 -18 0.0435487
w 30 -29 18 0.437494
w 30 -29 -18 0.833145
w 31 30 19 0
w 31 30 -19 1
w 31 -30 19 1
w 31 -30 -19 0
w 32 31 20 0.248501
w 32 31 -20 0.977027
w 32 -31 20 0.808019
w 32 -31 -20 0.812596
w 33 32 21 1
w 33 32 -21 0
w 33 -32 21 0
w 33 -32 -21 0
w 34 33 22 1
w 34 33 -22 0
w 34 -33 22 0
w 34 -33 -22 0
w 35 34 23 0.588447
w 35 34 -23 0.123727
w 35 -34 23 0.332931
w 35 -34 -23 0.0449397
w 36 35 24 0.134366
w 36 35 -24 0.390098
w 36 -35 24 0.655918
w 36 -35 -24 0.57186
w 37 25 1
w 37 -25 0
w 38 37 26 0.0156599
w 38 37 -26 0.583422
w 38 -37 26 0.312368
w 38 -37 -26 0.720072
w 39 38 27 0.289395
w 39 38 -27 0.528091
w 39 -38 27 0.644519
w 39 -38 -27 0.537516
w 40 39 28 0
w 40 39 -28 1
w 40 -39 28 1
w 40 -39 -28 1
w 41 40 29 0
w 41 40 -29 1
w 41 -40 29 0
w 41 -40 -29 1
w 42 41 30 1
w 42 41 -30 1
w 42 -41 30 0
w 42 -41 -30 1
w 43 42 31 0.578154
w 43 42 -31 0.511082
w 43 -42 31 0.892884
w 43 -42 -31 0.316099
w 44 43 32 1
w 44 43 -32 1
w 44 -43 32 1
w 44 -43 -32 0
w 45 44 33 0.156708
w 45 44 -33 0.375964
w 45 -44 33 0.371004
w 45 -44 -33 0.375152
w 46 45 34 0.786618
w 46 45 -34 0.35038
w 46 -45 34 0.492091
w 46 -45 -34 0.993199
w 47 46 35 1
w 47 46 -35 0
w 47 -46 35 0
w 47 -46 -35 1
w 48 47 36 1
w 48 47 -36 1
w 48 -47 36 1
w 48 -47 -36 0
w 49 37 0.0308019
w 49 -37 0.214922
w 50 49 38 1
w 50 49 -38 1
w 50 -49 38 0
w 50 -49 -38 1
w 51 50 39 0.64011
w 51 50 -39 0.908791
w 51 -50 39 0.312624
w 51 -50 -39 0.0111139
w 52 51 40 0
w 52 51 -40 0
w 52 -51 40 1
w 52 -51 -40 0
w 53 52 41 0.938044
w 53 52 -41 0.67716
w 53 -52 41 0.97027
w 53 -52 -41 0.713688
w 54 53 42 0
w 54 53 -42 1
w 54 -53 42 0
w 54 -53 -42 0
w 55 54 43 0.0244469
w 55 54 -43 0.860508
w 55 -54 43 0.844709
w 55 -54 -43 0.239369
w 56 55 44 1
w 56 55 -44 1
w 56 -55 44 1
w 56 -55 -44 0
w 57 56 45 0
w 57 56 -45 1
w 57 -56 45 0
w 57 -56 -45 1
w 58 57 46 0.307652
w 58 57 -46 0.66752
w 58 -57 46 0.362814
w 58 -57 -46 0.941975
w 59 58 47 1
w 59 58 -47 1
w 59 -58 47 0
w 59 -58 -47 0
w 60 59 48 0.933605
w 60 59 -48 0.583491
w 60 -59 48 0.887893
w 60 -59 -48 0.636014
w 61 49 0
w 61 -49 1
w 62 61 50 0.314913
w 62 61 -50 0.54651
w 62 -61 50 0.89983
w 62 -61 -50 0.481114
w 63 62 51 0.262666
w 63 62 -51 0.85253
w 63 -62 51 0.567605
w 63 -62 -51 0.377585
w 64 63 52 0
w 64 63 -52 1
w 64 -63 52 1
w 64 -63 -52 1
w 65 64 53 0
w 65 64 -53 0
w 65 -64 53 1
w 65 -64 -53 0
w 66 65 54 0.53885
w 66 65 -54 0.327232
w 66 -65 54 0.124647
w 66 -65 -54 0.472455
w 67 66 55 0.0125402
w 67 66 -55 0.108469
w 67 -66 55 0.365128
w 67 -66 -55 0.714341
w 68 67 56 0.680041
w 68 67 -56 0.260851
w 68 -67 56 0.668759
w 68 -67 -56 0.161155
w 69 68 57 0.931425
w 69 68 -57 0.0136852
w 69 -68 57 0.482203
w 69 -68 -57 0.30901
w 70 69 58 1
w 70 69 -58 0
w 70 -69 58 1
w 70 -69 -58 0
w 71 70 59 0
w 71 70 -59 0
w 71 -70 59 1
w 71 -70 -59 1
w 72 71 60 0.601114
w 72 71 -60 0.598525
w 72 -71 60 0.87035
w 72 -71 -60 0.725761
w 73 61 1
w 73 -61 0
w 74 73 62 0.179448
w 74 73 -62 0.1462
w 74 -73 62 0.452642
w 74 -73 -62 0.948377
w 75 74 63 0.713493
w 75 74 -63 0.617137
w 75 -74 63 0.987396
w 75 -74 -63 0.628091
w 76 75 64 0.00108136
w 76 75 -64 0.110294
w 76 -75 64 0.857572
w 76 -75 -64 0.175372
w 77 76 65 0.567877
w 77 76 -65 0.130966
w 77 -76 65 0.00450384
w 77 -76 -65 0.987129
w 78 77 66 0.344406
w 78 77 -66 0.0573024
w 78 -77 66 0.595059
w 78 -77 -66 0.887525
w 79 78 67 0.193584
w 79 78 -67 0.757875
w 79 -78 67 0.384178
w 79 -78 -67 0.264563
w 80 79 68 0.122479
w 80 79 -68 0.444011
w 80 -79 68 0.685148
w 80 -79 -68 0.575121
w 81 80 69 1
w 81 80 -69 0
w 81 -80 69 0
w 81 -80 -69 1
w 82 81 70 0.558087
w 82 81 -70 0.499866
w 82 -81 70 0.0269989
w 82 -81 -70 0.415659
w 83 82 71 0.74107
w 83 82 -71 0.983536
w 83 -82 71 0.806204
w 83 -82 -71 0.745574
w 84 83 72 0.341588
w 84 83 -72 0.0899803
w 84 -83 72 0.0279674
w 84 -83 -72 0.936647
w 85 73 0.686384
w 85 -73 0.130231
w 86 85 74 0.0705616
w 86 85 -74 0.394795
w 86 -85 74 0.274327
w 86 -85 -74 0.19304
w 87 86 75 0.959475
w 87 86 -75 0.768161
w 87 -86 75 0.231195
w 87 -86 -75 0.470863
w 88 87 76 0
w 88 87 -76 1
w 88 -87 76 0
w 88 -87 -76 0
w 89 88 77 0
w 89 88 -77 1
w 89 -88 77 0
w 89 -88 -77 0
w 90 89 78 0.487123
w 90 89 -78 0.168668
w 90 -89 78 0.292543
w 90 -89 -78 0.577103
w 91 90 79 0
w 91 90 -79 0
w 91 -90 79 1
w 91 -90 -79 0
w 92 91 80 0
w 92 91 -80 1
w 92 -91 80 0
w 92 -91 -80 1
w 93 92 81 0.52379
w 93 92 -81 0.914783
w 93 -92 81 0.824217
w 93 -92 -81 0.994654
w 94 93 82 0.0649367
w 94 93 -82 0.964302
w 94 -93 82 0.945038
w 94 -93 -82 0.863744
w 95 94 83 0
w 95 94 -83 0
w 95 -94 83 0
w 95 -94 -83 1
w 96 95 84 1
w 96 95 -84 0
w 96 -95 84 1
w 96 -95 -84 1
w 97 85 0.641518
w 97 -85 0.0512579
w 98 97 86 1
w 98 97 -86 1
w 98 -97 86 0
w 98 -97 -86 0
w 99 98 87 1
w 99 98 -87 1
w 99 -98 87 0
w 99 -98 -87 1
w 100 99 88 0.582134
w 100 99 -88 0.678647
w 100 -99 88 0.51108
w 100 -99 -88 0.647071
w 101 100 89 0.456118
w 101 100 -89 0.510815
w 101 -100 89 0.0767651
w 101 -100 -89 0.401634
w 102 101 90 0.655334
w 102 101 -90 0.0886991
w 102 -101 90 0.86524
w 102 -101 -90 0.184858
w 103 102 91 0
w 103 102 -91 1
w 103 -102 91 0
w 103 -102 -91 0
w 104 103 92 0
w 104 103 -92 0
w 104 -103 92 1
w 104 -103 -92 0
w 105 104 93 0.0761683
w 105 104 -93 0.579036
w 105 -104 93 0.391675
w 105 -104 -93 0.760161
w 106 105 94 1
w 106 105 -94 0
w 106 -105 94 0
w 106 -105 -94 1
w 107 106 95 1
w 107 106 -95 1
w 107 -106 95 0
w 107 -106 -95 0
w 108 107 96 0.813856
w 108 107 -96 0.576089
w 108 -107 96 0.585961
w 108 -107 -96 0.998713
w 109 97 0.896083
w 109 -97 0.00563872
w 110 109 98 0.847723
w 110 109 -98 0.0638219
w 110 -109 98 0.173232
w 110 -109 -98 0.3239
w 111 110 99 0.0891977
w 111 110 -99 0.278196
w 111 -110 99 0.166442
w 111 -110 -99 0.165366
w 112 111 100 0.558118
w 112 111 -100 0.925527
w 112 -111 100 0.97579
w 112 -111 -100 0.531927
w 113 112 101 1
w 113 112 -101 0
w 113 -112 101 1
w 113 -112 -101 0
w 114 113 102 1
w 114 113 -102 1
w 114 -113 102 0
w 114 -113 -102 1
w 115 114 103 0.417184
w 115 114 -103 0.593639
w 115 -114 103 0.487266
w 115 -114 -103 0.422822
w 116 115 104 1
w 116 115 -104 0
w 116 -115 104 0
w 116 -115 -104 0
w 117 116 105 0
w 117 116 -105 0
w 117 -116 105 1
w 117 -116 -105 0
w 118 117 106 0.743889
w 118 117 -106 0.800117
w 118 -117 106 0.770108
w 118 -117 -106 0.275816
w 119 118 107 1
w 119 118 -107 1
w 119 -118 107 0
w 119 -118 -107 1
w 120 119 108 0.215161
w 120 119 -108 0.245295
w 120 -119 108 0.718348
w 120 -119 -108 0.633631
w 121 109 0.309531
w 121 -109 0.0508146
w 122 121 110 0.796797
w 122 121 -110 0.473637
w 122 -121 110 0.0403911
w 122 -121 -110 0.131787
w 123 122 111 0.660417
w 123 122 -111 0.790676
w 123 -122 111 0.97961
w 123 -122 -111 0.369641
w 124 123 112 0.165381
w 124 123 -112 0.244231
w 124 -123 112 0.52208
w 124 -123 -112 0.90927
w 125 124 113 1
w 125 124 -113 1
w 125 -124 113 1
w 125 -124 -113 0
w 126 125 114 0.819348
w 126 125 -114 0.734444
w 126 -125 114 0.326834
w 126 -125 -114 0.034508
w 127 126 115 0.0451814
w 127 126 -115 0.668139
w 127 -126 115 0.979696
w 127 -126 -115 0.354713
w 128 127 116 0.573293
w 128 127 -116 0.15151
w 128 -127 116 0.192591
w 128 -127 -116 0.613685
w 129 128 117 0
w 129 128 -117 1
w 129 -128 117 0
w 129 -128 -117 0
w 130 129 118 0.801735
w 130 129 -118 0.297864
w 130 -129 118 0.887974
w 130 -129 -118 0.323815
w 131 130 119 1
w 131 130 -119 0
w 131 -130 119 1
w 131 -130 -119 1
w 132 131 120 1
w 132 131 -120 0
w 132 -131 120 1
w 132 -131 -120 1
w 133 121 0.997908
w 133 -121 0.377943
w 134 133 122 0.977604
w 134 133 -122 0.732656
w 134 -133 122 0.382073
w 134 -133 -122 0.550898
w 135 134 123 0.574663
w 135 134 -123 0.164582
w 135 -134 123 0.167463
w 135 -134 -123 0.727535
w 136 135 124 1
w 136 135 -124 1
w 136 -135 124 0
w 136 -135 -124 0
w 137 136 125 1
w 137 136 -125 1
w 137 -136 125 1
w 137 -136 -125 0
w 138 137 126 0.757235
w 138 137 -126 0.0438489
w 138 -137 126 0.266715
w 138 -137 -126 0.763163
w 139 138 127 1
w 139 138 -127 1
w 139 -138 127 1
w 139 -138 -127 0
w 140 139 128 0
w 140 139 -128 0
w 140 -139 128 0
w 140 -139 -128 1
w 141 140 129 0.0906894
w 141 140 -129 0.619156
w 141 -140 129 0.975878
w 141 -140 -129 0.258152
w 142 141 130 0
w 142 141 -130 0
w 142 -141 130 0
w 142 -141 -130 1
w 143 142 131 1
w 143 142 -131 0
w 143 -142 131 1
w 143 -142 -131 1
w 144 143 132 0.486839
w 144 143 -132 0.413965
w 144 -143 132 0.159449
w 144 -143 -132 0.250002